presolving:
(round 1, fast)       54 del vars, 28 del conss, 0 add conss, 0 chg bounds, 1 chg sides, 5427 chg coeffs, 0 upgd conss, 0 impls, 5600 clqs
   (0.1s) running MILP presolver
   (0.1s) MILP presolver found nothing
(round 2, exhaustive) 54 del vars, 28 del conss, 0 add conss, 0 chg bounds, 1 chg sides, 5427 chg coeffs, 5628 upgd conss, 0 impls, 5600 clqs
(round 3, fast)       54 del vars, 28 del conss, 0 add conss, 0 chg bounds, 1 chg sides, 10854 chg coeffs, 5628 upgd conss, 0 impls, 5600 clqs
(round 4, medium)     54 del vars, 5456 del conss, 5400 add conss, 27 chg bounds, 1 chg sides, 10854 chg coeffs, 5628 upgd conss, 0 impls, 5600 clqs
(round 5, fast)       81 del vars, 5456 del conss, 5400 add conss, 27 chg bounds, 1 chg sides, 10854 chg coeffs, 5628 upgd conss, 0 impls, 5600 clqs
   (0.2s) probing: 51/5427 (0.9%) - 0 fixings, 0 aggregations, 0 implications, 0 bound changes
   (0.2s) probing aborted: 50/50 successive totally useless probings
   (0.3s) symmetry computation started: requiring (bin +, int -, cont +), (fixed: bin -, int +, cont -)
   (0.3s) no symmetry present
presolving (6 rounds: 6 fast, 3 medium, 2 exhaustive):
 81 deleted vars, 5456 deleted constraints, 5400 added constraints, 27 tightened bounds, 0 added holes, 1 changed sides, 10854 changed coefficients
 0 implications, 5600 cliques
presolved problem has 5427 variables (5427 bin, 0 int, 0 impl, 0 cont) and 5600 constraints
   5600 constraints of type <setppc>
Presolving Time: 0.28

 time | node  | left  |LP iter|LP it/n|mem/heur|mdpt |vars |cons |rows |cuts |sepa|confs|strbr|  dualbound   | primalbound  |  gap   | compl. 
p 0.3s|     1 |     0 |     0 |     - |  clique|   0 |5427 |5600 |5600 |   0 |  0 |   0 |   0 | 7.080000e+02 | 2.458205e+04 |3372.04%| unknown
  0.8s|     1 |     0 |  1447 |     - |    67M |   0 |5427 |5601 |5600 |   0 |  0 |   1 |   0 | 1.431990e+04 | 2.458205e+04 |  71.66%| unknown
r 0.8s|     1 |     0 |  1447 |     - |rounding|   0 |5427 |5601 |5600 |   0 |  0 |   1 |   0 | 1.431990e+04 | 2.385978e+04 |  66.62%| unknown
  3.3s|     1 |     0 |  1498 |     - |    72M |   0 |5427 |5601 |5602 |   2 |  1 |   1 |   0 | 1.432960e+04 | 2.385978e+04 |  66.51%| unknown
  4.8s|     1 |     0 |  1580 |     - |    74M |   0 |5427 |5601 |5605 |   5 |  2 |   1 |   0 | 1.434464e+04 | 2.385978e+04 |  66.33%| unknown
  6.7s|     1 |     0 |  1661 |     - |    80M |   0 |5427 |5601 |5607 |   7 |  3 |   1 |   0 | 1.435529e+04 | 2.385978e+04 |  66.21%| unknown
r 6.7s|     1 |     0 |  1661 |     - |rounding|   0 |5427 |5601 |5607 |   7 |  3 |   1 |   0 | 1.435529e+04 | 2.383845e+04 |  66.06%| unknown
  8.8s|     1 |     0 |  1733 |     - |    81M |   0 |5427 |5601 |5615 |  15 |  4 |   1 |   0 | 1.436609e+04 | 2.383845e+04 |  65.94%| unknown
 10.6s|     1 |     0 |  1849 |     - |    84M |   0 |5427 |5601 |5619 |  19 |  5 |   1 |   0 | 1.437547e+04 | 2.383845e+04 |  65.83%| unknown
 13.5s|     1 |     0 |  1987 |     - |    89M |   0 |5427 |5601 |5621 |  21 |  6 |   1 |   0 | 1.438716e+04 | 2.383845e+04 |  65.69%| unknown
 15.5s|     1 |     0 |  2111 |     - |    91M |   0 |5427 |5601 |5626 |  26 |  7 |   1 |   0 | 1.439510e+04 | 2.383845e+04 |  65.60%| unknown
 17.3s|     1 |     0 |  2262 |     - |    96M |   0 |5427 |5601 |5631 |  31 |  8 |   1 |   0 | 1.440146e+04 | 2.383845e+04 |  65.53%| unknown
 22.7s|     1 |     0 |  2396 |     - |   103M |   0 |5427 |5601 |5634 |  34 |  9 |   1 |   0 | 1.440589e+04 | 2.383845e+04 |  65.48%| unknown
 26.0s|     1 |     0 |  2520 |     - |   110M |   0 |5427 |5601 |5639 |  39 | 10 |   1 |   0 | 1.441105e+04 | 2.383845e+04 |  65.42%| unknown
 26.2s|     1 |     0 |  2695 |     - |   111M |   0 |5427 |5601 |5641 |  41 | 11 |   1 |   0 | 1.441620e+04 | 2.383845e+04 |  65.36%| unknown
 time | node  | left  |LP iter|LP it/n|mem/heur|mdpt |vars |cons |rows |cuts |sepa|confs|strbr|  dualbound   | primalbound  |  gap   | compl. 
r26.2s|     1 |     0 |  2695 |     - |rounding|   0 |5427 |5601 |5641 |  41 | 11 |   1 |   0 | 1.441620e+04 | 2.382756e+04 |  65.28%| unknown
 26.4s|     1 |     0 |  2765 |     - |   112M |   0 |5427 |5601 |5643 |  43 | 12 |   1 |   0 | 1.441821e+04 | 2.382756e+04 |  65.26%| unknown
 26.6s|     1 |     0 |  2822 |     - |   113M |   0 |5427 |5601 |5645 |  45 | 13 |   1 |   0 | 1.441987e+04 | 2.382756e+04 |  65.24%| unknown
 26.8s|     1 |     0 |  2983 |     - |   114M |   0 |5427 |5601 |5647 |  47 | 14 |   1 |   0 | 1.442536e+04 | 2.382756e+04 |  65.18%| unknown
r26.9s|     1 |     0 |  2983 |     - |rounding|   0 |5427 |5601 |5647 |  47 | 14 |   1 |   0 | 1.442536e+04 | 2.381078e+04 |  65.06%| unknown
 27.0s|     1 |     0 |  3125 |     - |   114M |   0 |5427 |5601 |5653 |  53 | 15 |   1 |   0 | 1.442684e+04 | 2.381078e+04 |  65.04%| unknown
 27.2s|     1 |     0 |  3189 |     - |   115M |   0 |5427 |5601 |5655 |  55 | 16 |   1 |   0 | 1.442876e+04 | 2.381078e+04 |  65.02%| unknown
 27.4s|     1 |     0 |  3270 |     - |   115M |   0 |5427 |5601 |5650 |  56 | 17 |   1 |   0 | 1.443247e+04 | 2.381078e+04 |  64.98%| unknown
 27.6s|     1 |     0 |  3336 |     - |   116M |   0 |5427 |5601 |5652 |  58 | 18 |   1 |   0 | 1.443536e+04 | 2.381078e+04 |  64.95%| unknown
 27.8s|     1 |     0 |  3447 |     - |   117M |   0 |5427 |5601 |5653 |  59 | 19 |   1 |   0 | 1.443681e+04 | 2.381078e+04 |  64.93%| unknown
 28.0s|     1 |     0 |  3582 |     - |   117M |   0 |5427 |5601 |5655 |  61 | 20 |   1 |   0 | 1.443961e+04 | 2.381078e+04 |  64.90%| unknown
 28.2s|     1 |     0 |  3618 |     - |   117M |   0 |5427 |5601 |5658 |  64 | 21 |   1 |   0 | 1.444004e+04 | 2.381078e+04 |  64.89%| unknown
d28.9s|     1 |     0 |  5441 |     - |farkasdi|   0 |5427 |5601 |5658 |   0 | 23 |   1 |   0 | 1.444004e+04 | 1.529963e+04 |   5.95%| unknown
 33.4s|     1 |     0 | 10122 |     - |   117M |   0 |5427 |5601 |5658 |  64 | 23 |   1 |   0 | 1.444004e+04 | 1.529963e+04 |   5.95%| unknown
 38.3s|     1 |     2 | 10122 |     - |   117M |   0 |5427 |5601 |5658 |  64 | 25 |   1 |  20 | 1.450135e+04 | 1.529963e+04 |   5.50%| unknown
 time | node  | left  |LP iter|LP it/n|mem/heur|mdpt |vars |cons |rows |cuts |sepa|confs|strbr|  dualbound   | primalbound  |  gap   | compl. 
*71.9s|    20 |     5 | 18489 | 782.7 |strongbr|   6 |5427 |5651 |5647 |  64 |  4 |  51 | 366 | 1.459635e+04 | 1.527601e+04 |   4.66%|  21.46%
 80.9s|   100 |    15 | 30696 | 273.5 |   122M |  10 |5427 |5659 |5647 |  64 |  2 |  59 | 417 | 1.480452e+04 | 1.527601e+04 |   3.18%|  37.42%
*81.8s|   121 |    12 | 33040 | 245.2 |    LP  |  10 |5427 |5659 |5647 |  64 |  1 |  59 | 419 | 1.481716e+04 | 1.516687e+04 |   2.36%|  41.37%
*82.0s|   127 |    14 | 33295 | 235.5 |    LP  |  10 |5427 |5659 |5647 |  64 |  1 |  59 | 419 | 1.481716e+04 | 1.511946e+04 |   2.04%|  43.11%

SCIP Status        : problem is solved [optimal solution found]
Solving Time (sec) : 86.38
Solving Nodes      : 199
Primal Bound       : +1.51194587424752e+04 (12 solutions)
Dual Bound         : +1.51194587424752e+04
Gap                : 0.00 %
Solve Status: optimal
Solve Time: 86.38 seconds
